Route #1: 6 96 99 59 93 85 61 17 45 84 5 60 89 
Route #2: 13 87 97 95 94 
Route #3: 18 83 8 46 47 36 49 64 11 19 48 82 7 52 
Route #4: 21 72 75 56 39 67 23 41 22 74 73 40 
Route #5: 27 69 1 70 30 20 66 32 90 63 10 62 88 31 
Route #6: 28 12 80 68 29 24 54 55 25 4 26 53 
Route #7: 50 33 81 51 9 71 65 35 34 78 79 3 77 76 
Route #8: 58 2 57 15 43 42 14 44 38 86 16 91 100 98 37 92 
cost 815

